NAME: st70-20-4
TYPE: TSP
COMMENT: min_cost = 353.45
DIMENSION: 20
EDGE_WEIGHT_TYPE: EUC_2D
NODE_COORD_SECTION
1 20 55
2 48 83
3 79 70
4 82 88
5 8 19
6 42 67
7 16 74
8 77 13
9 67 99
10 10 55
11 87 18
12 73 28
13 54 38
14 48 67
15 92 34
16 10 68
17 78 92
18 7 76
19 41 76
20 80 39
EOF
